(declare-const X String)
; /filename=[^\n]*\x2em4r/i
(assert (str.in_re X (re.++ (str.to_re "/filename=") (re.* (re.comp (str.to_re "\u{a}"))) (str.to_re ".m4r/i\u{a}"))))
; /window\x2elocation\s*=\s*unescape\s*\x28\s*["']\x25[^"']*https?\x3a/
(assert (not (str.in_re X (re.++ (str.to_re "/window.location") (re.* (re.union (str.to_re " ") (str.to_re "\u{9}") (str.to_re "\u{a}") (str.to_re "\u{c}") (str.to_re "\u{d}"))) (str.to_re "=") (re.* (re.union (str.to_re " ") (str.to_re "\u{9}") (str.to_re "\u{a}") (str.to_re "\u{c}") (str.to_re "\u{d}"))) (str.to_re "unescape") (re.* (re.union (str.to_re " ") (str.to_re "\u{9}") (str.to_re "\u{a}") (str.to_re "\u{c}") (str.to_re "\u{d}"))) (str.to_re "(") (re.* (re.union (str.to_re " ") (str.to_re "\u{9}") (str.to_re "\u{a}") (str.to_re "\u{c}") (str.to_re "\u{d}"))) (re.union (str.to_re "\u{22}") (str.to_re "'")) (str.to_re "%") (re.* (re.union (str.to_re "\u{22}") (str.to_re "'"))) (str.to_re "http") (re.opt (str.to_re "s")) (str.to_re ":/\u{a}")))))
; /\x2ecnt([\?\x5c\x2f]|$)/smiU
(assert (str.in_re X (re.++ (str.to_re "/.cnt") (re.union (str.to_re "?") (str.to_re "\u{5c}") (str.to_re "/")) (str.to_re "/smiU\u{a}"))))
; /filename=[^\n]*\x2ermp/i
(assert (str.in_re X (re.++ (str.to_re "/filename=") (re.* (re.comp (str.to_re "\u{a}"))) (str.to_re ".rmp/i\u{a}"))))
(check-sat)
